100 8
731 755
539 498
244 662
336 579
460 458
569 106
530 93
436 314
773 240
363 812
435 311
314 163
601 579
912 184
326 317
462 627
919 544
387 848
449 73
280 390
562 589
367 289
343 321
588 558
273 157
902 224
409 190
733 198
168 14
902 538
603 583
706 599
55 22
864 859
813 534
841 137
563 678
789 166
701 686
693 229
369 602
857 192
337 608
597 587
307 269
622 486
634 103
642 619
678 458
245 275
432 573
777 507
549 711
107 529
476 548
471 524
814 876
311 512
279 367
467 78
863 508
570 585
46 209
559 176
419 426
144 299
129 599
274 788
688 616
308 887
228 645
195 510
610 78
212 652
657 561
481 218
294 674
553 609
332 861
711 563
406 836
287 903
48 142
248 540
460 80
574 194
64 61
221 686
858 218
406 650
300 626
175 57
252 175
585 163
655 440
455 129
634 478
636 546
483 120
876 266
